SAT
-91 -11 1 37 -60 -3 -25 33 -45 -12 70 -38 -15 2 -30 -64 95 78 72 7 -40 81 53 -87 -14 88 -82 52 49 8 50 22 -98 -69 -99 26 76 61 -44 36 -35 56 9 6 66 -79 68 -75 65 -74 -42 -62 17 4 -96 -20 -90 -83 -34 -5 -71 55 -10 51 41 46 39 27 54 21 -16 -31 67 -97 -59 -47 -92 94 -29 48 -19 32 85 77 28 43 -63 -100 80 89 -18 -23 13 73 93 84 57 -58 -86 24 0
